NAME : kroB100-C-3-1-a__bsl__30248.tour
COMMENT : Length = 30248.000
COMMENT : Generated by compare_sota_instances.py for bsl
TYPE : TOUR
DIMENSION : 100
TOUR_SECTION
30
1
95
71
27
46
21
10
68
53
39
70
40
67
5
62
26
69
75
100
56
81
79
47
23
22
88
65
37
72
80
20
49
86
38
90
85
73
93
11
3
28
91
97
99
8
29
76
59
32
98
12
61
35
66
4
6
87
74
94
57
34
9
25
7
84
58
54
52
43
89
60
83
33
15
51
48
31
63
82
64
14
42
2
13
78
17
41
44
19
92
96
36
45
18
24
55
77
16
50
-1
EOF
